;(set-option :produce-unsat-cores true )
(set-logic ALL_SUPPORTED )
(declare-sort A$ 0 )
(declare-sort B$ 0 )
(declare-sort Nat$ 0 )
(declare-sort A_a_fun$ 0 )
(declare-sort A_b_fun$ 0 )
(declare-sort B_a_fun$ 0 )
(declare-sort B_b_fun$ 0 )
(declare-sort A_a_a_prod_fun$ 0 )
(declare-sort A_a_prod_a_fun$ 0 )
(declare-sort A_a_prod_b_fun$ 0 )
(declare-sort A_b_a_prod_fun$ 0 )
(declare-sort A_b_prod_a_fun$ 0 )
(declare-sort A_b_prod_b_fun$ 0 )
(declare-sort B_a_prod_a_fun$ 0 )
(declare-sort B_a_prod_b_fun$ 0 )
(declare-sort B_b_a_prod_fun$ 0 )
(declare-sort B_b_prod_b_fun$ 0 )
(declare-sort A_a_a_prod_prod_a_fun$ 0 )
(declare-sort A_b_a_prod_prod_a_fun$ 0 )
(declare-sort B_a_a_prod_prod_b_fun$ 0 )
(declare-sort B_a_b_prod_prod_b_fun$ 0 )
(declare-sort B_b_a_prod_prod_b_fun$ 0 )
(declare-sort B_b_b_prod_prod_b_fun$ 0 )
(declare-codatatypes ()((A_llist$ (lNil$ )(lCons$ (lhd$ A$ )(ltl$ A_llist$ )))))
(declare-sort B_a_prod$ 0)
(declare-fun fst$ (B_a_prod$)B$)
(declare-fun snd$ (B_a_prod$)A$)
(declare-fun pair$ (B$ A$ )B_a_prod$)
(declare-codatatypes ()((B_a_prod_llist$ (lNil$a )(lCons$a (lhd$a B_a_prod$ )(ltl$a B_a_prod_llist$ )))(B_llist$ (lNil$b )(lCons$b (lhd$b B$ )(ltl$b B_llist$ )))))
(declare-sort Nat_option$ 0)
(declare-sort Enat$ 0)
(declare-sort A_a_prod$ 0)
(declare-fun none$ ()Nat_option$)
(declare-fun the$ (Nat_option$)Nat$)
(declare-fun some$ (Nat$ )Nat_option$)
(declare-fun rep_enat$ (Enat$)Nat_option$)
(declare-fun abs_enat$ (Nat_option$ )Enat$)
(declare-fun fst$a (A_a_prod$)A$)
(declare-fun snd$a (A_a_prod$)A$)
(declare-fun pair$a (A$ A$ )A_a_prod$)
(declare-codatatypes ()((A_a_prod_llist$ (lNil$c )(lCons$c (lhd$c A_a_prod$ )(ltl$c A_a_prod_llist$ )))))
(declare-sort A_b_prod$ 0)
(declare-fun fst$b (A_b_prod$)A$)
(declare-fun snd$b (A_b_prod$)B$)
(declare-fun pair$b (A$ B$ )A_b_prod$)
(declare-codatatypes ()((A_b_prod_llist$ (lNil$d )(lCons$d (lhd$d A_b_prod$ )(ltl$d A_b_prod_llist$ )))))
(declare-sort B_b_prod$ 0)
(declare-fun fst$c (B_b_prod$)B$)
(declare-fun snd$c (B_b_prod$)B$)
(declare-fun pair$c (B$ B$ )B_b_prod$)
(declare-codatatypes ()((B_b_prod_llist$ (lNil$e )(lCons$e (lhd$e B_b_prod$ )(ltl$e B_b_prod_llist$ )))))
(declare-sort B_a_a_prod_prod$ 0)
(declare-fun fst$d (B_a_a_prod_prod$)B$)
(declare-fun snd$d (B_a_a_prod_prod$)A_a_prod$)
(declare-fun pair$d (B$ A_a_prod$ )B_a_a_prod_prod$)
(declare-codatatypes ()((B_a_a_prod_prod_llist$ (lNil$f )(lCons$f (lhd$f B_a_a_prod_prod$ )(ltl$f B_a_a_prod_prod_llist$ )))))
(declare-sort A_b_a_prod_prod$ 0)
(declare-fun fst$e (A_b_a_prod_prod$)A$)
(declare-fun snd$e (A_b_a_prod_prod$)B_a_prod$)
(declare-fun pair$e (A$ B_a_prod$ )A_b_a_prod_prod$)
(declare-codatatypes ()((A_b_a_prod_prod_llist$ (lNil$g )(lCons$g (lhd$g A_b_a_prod_prod$ )(ltl$g A_b_a_prod_prod_llist$ )))))
(declare-sort A_a_a_prod_prod$ 0)
(declare-fun fst$f (A_a_a_prod_prod$)A$)
(declare-fun snd$f (A_a_a_prod_prod$)A_a_prod$)
(declare-fun pair$f (A$ A_a_prod$ )A_a_a_prod_prod$)
(declare-codatatypes ()((A_a_a_prod_prod_llist$ (lNil$h )(lCons$h (lhd$h A_a_a_prod_prod$ )(ltl$h A_a_a_prod_prod_llist$ )))))
(declare-sort A_b_b_prod_prod$ 0)
(declare-fun fst$g (A_b_b_prod_prod$)A$)
(declare-fun snd$g (A_b_b_prod_prod$)B_b_prod$)
(declare-fun pair$g (A$ B_b_prod$ )A_b_b_prod_prod$)
(declare-codatatypes ()((A_b_b_prod_prod_llist$ (lNil$i )(lCons$i (lhd$i A_b_b_prod_prod$ )(ltl$i A_b_b_prod_prod_llist$ )))))
(declare-sort A_a_b_prod_prod$ 0)
(declare-fun fst$h (A_a_b_prod_prod$)A$)
(declare-fun snd$h (A_a_b_prod_prod$)A_b_prod$)
(declare-fun pair$h (A$ A_b_prod$ )A_a_b_prod_prod$)
(declare-codatatypes ()((A_a_b_prod_prod_llist$ (lNil$j )(lCons$j (lhd$j A_a_b_prod_prod$ )(ltl$j A_a_b_prod_prod_llist$ )))))
(declare-sort B_b_a_prod_prod$ 0)
(declare-fun fst$i (B_b_a_prod_prod$)B$)
(declare-fun snd$i (B_b_a_prod_prod$)B_a_prod$)
(declare-fun pair$i (B$ B_a_prod$ )B_b_a_prod_prod$)
(declare-codatatypes ()((B_b_a_prod_prod_llist$ (lNil$k )(lCons$k (lhd$k B_b_a_prod_prod$ )(ltl$k B_b_a_prod_prod_llist$ )))))
(declare-sort B_a_b_prod_prod$ 0)
(declare-fun fst$j (B_a_b_prod_prod$)B$)
(declare-fun snd$j (B_a_b_prod_prod$)A_b_prod$)
(declare-fun pair$j (B$ A_b_prod$ )B_a_b_prod_prod$)
(declare-codatatypes ()((B_a_b_prod_prod_llist$ (lNil$l )(lCons$l (lhd$l B_a_b_prod_prod$ )(ltl$l B_a_b_prod_prod_llist$ )))))
(declare-sort B_b_b_prod_prod$ 0)
(declare-fun fst$k (B_b_b_prod_prod$)B$)
(declare-fun snd$k (B_b_b_prod_prod$)B_b_prod$)
(declare-fun pair$k (B$ B_b_prod$ )B_b_b_prod_prod$)
(declare-codatatypes ()((B_b_b_prod_prod_llist$ (lNil$m )(lCons$m (lhd$m B_b_b_prod_prod$ )(ltl$m B_b_b_prod_prod_llist$ )))))
(declare-sort B_a_prod_a_prod$ 0)
(declare-fun fst$l (B_a_prod_a_prod$)B_a_prod$)
(declare-fun snd$l (B_a_prod_a_prod$)A$)
(declare-fun pair$l (B_a_prod$ A$ )B_a_prod_a_prod$)
(declare-codatatypes ()((B_a_prod_a_prod_llist$ (lNil$n )(lCons$n (lhd$n B_a_prod_a_prod$ )(ltl$n B_a_prod_a_prod_llist$ )))))
(declare-sort B_a_prod_b_prod$ 0)
(declare-fun fst$m (B_a_prod_b_prod$)B_a_prod$)
(declare-fun snd$m (B_a_prod_b_prod$)B$)
(declare-fun pair$m (B_a_prod$ B$ )B_a_prod_b_prod$)
(declare-codatatypes ()((B_a_prod_b_prod_llist$ (lNil$o )(lCons$o (lhd$o B_a_prod_b_prod$ )(ltl$o B_a_prod_b_prod_llist$ )))))
(declare-fun uu$ ()B_a_prod_a_fun$ )
(declare-fun xs$ ()B_llist$ )
(declare-fun ys$ ()A_llist$ )
(declare-fun min$ (Enat$ Enat$ )Enat$ )
(declare-fun uua$ ()B_b_prod_b_fun$ )
(declare-fun uub$ ()B_a_prod_b_fun$ )
(declare-fun uuc$ ()A_b_prod_a_fun$ )
(declare-fun uud$ ()A_a_prod_a_fun$ )
(declare-fun uue$ ()B_b_a_prod_prod_b_fun$ )
(declare-fun uuf$ ()B_a_a_prod_prod_b_fun$ )
(declare-fun uug$ ()B_a_b_prod_prod_b_fun$ )
(declare-fun uuh$ ()B_b_b_prod_prod_b_fun$ )
(declare-fun uui$ ()A_b_a_prod_prod_a_fun$ )
(declare-fun uuj$ ()A_a_a_prod_prod_a_fun$ )
(declare-fun llcp$ (B_a_a_prod_prod_llist$ B_a_a_prod_prod_llist$ )Enat$ )
(declare-fun lmap$ (B_a_prod_a_fun$ B_a_prod_llist$ )A_llist$ )
(declare-fun lzip$ (B_llist$ A_llist$ )B_a_prod_llist$ )
(declare-fun llcp$a (B_b_prod_llist$ B_b_prod_llist$ )Enat$ )
(declare-fun llcp$b (A_b_a_prod_prod_llist$ A_b_a_prod_prod_llist$ )Enat$ )
(declare-fun llcp$c (A_a_a_prod_prod_llist$ A_a_a_prod_prod_llist$ )Enat$ )
(declare-fun llcp$d (A_b_prod_llist$ A_b_prod_llist$ )Enat$ )
(declare-fun llcp$e (B_a_prod_llist$ B_a_prod_llist$ )Enat$ )
(declare-fun llcp$f (B_llist$ B_llist$ )Enat$ )
(declare-fun llcp$g (A_a_prod_llist$ A_a_prod_llist$ )Enat$ )
(declare-fun llcp$h (A_llist$ A_llist$ )Enat$ )
(declare-fun lmap$a (B_b_fun$ B_llist$ )B_llist$ )
(declare-fun lmap$b (A_b_fun$ A_llist$ )B_llist$ )
(declare-fun lmap$c (B_a_fun$ B_llist$ )A_llist$ )
(declare-fun lmap$d (A_a_fun$ A_llist$ )A_llist$ )
(declare-fun lmap$e (B_a_prod_b_fun$ B_a_prod_llist$ )B_llist$ )
(declare-fun lmap$f (A_a_prod_b_fun$ A_a_prod_llist$ )B_llist$ )
(declare-fun lmap$g (A_b_prod_b_fun$ A_b_prod_llist$ )B_llist$ )
(declare-fun lmap$h (B_b_prod_b_fun$ B_b_prod_llist$ )B_llist$ )
(declare-fun lmap$i (A_b_prod_a_fun$ A_b_prod_llist$ )A_llist$ )
(declare-fun lmap$j (A_b_a_prod_fun$ A_llist$ )B_a_prod_llist$ )
(declare-fun lmap$k (B_b_a_prod_fun$ B_llist$ )B_a_prod_llist$ )
(declare-fun lmap$l (A_a_a_prod_fun$ A_llist$ )A_a_prod_llist$ )
(declare-fun lmap$m (A_a_prod_a_fun$ A_a_prod_llist$ )A_llist$ )
(declare-fun lmap$n (B_b_a_prod_prod_b_fun$ B_b_a_prod_prod_llist$ )B_llist$ )
(declare-fun lmap$o (B_a_a_prod_prod_b_fun$ B_a_a_prod_prod_llist$ )B_llist$ )
(declare-fun lmap$p (B_a_b_prod_prod_b_fun$ B_a_b_prod_prod_llist$ )B_llist$ )
(declare-fun lmap$q (B_b_b_prod_prod_b_fun$ B_b_b_prod_prod_llist$ )B_llist$ )
(declare-fun lmap$r (A_b_a_prod_prod_a_fun$ A_b_a_prod_prod_llist$ )A_llist$ )
(declare-fun lmap$s (A_a_a_prod_prod_a_fun$ A_a_a_prod_prod_llist$ )A_llist$ )
(declare-fun ltake$ (Enat$ A_llist$ )A_llist$ )
(declare-fun lzip$a (B_llist$ B_llist$ )B_b_prod_llist$ )
(declare-fun lzip$b (A_llist$ B_llist$ )A_b_prod_llist$ )
(declare-fun lzip$c (A_llist$ A_llist$ )A_a_prod_llist$ )
(declare-fun lzip$d (B_llist$ B_a_prod_llist$ )B_b_a_prod_prod_llist$ )
(declare-fun lzip$e (B_llist$ A_a_prod_llist$ )B_a_a_prod_prod_llist$ )
(declare-fun lzip$f (B_llist$ A_b_prod_llist$ )B_a_b_prod_prod_llist$ )
(declare-fun lzip$g (B_llist$ B_b_prod_llist$ )B_b_b_prod_prod_llist$ )
(declare-fun lzip$h (A_llist$ B_a_prod_llist$ )A_b_a_prod_prod_llist$ )
(declare-fun lzip$i (A_llist$ A_a_prod_llist$ )A_a_a_prod_prod_llist$ )
(declare-fun lzip$j (B_a_prod_llist$ A_llist$ )B_a_prod_a_prod_llist$ )
(declare-fun lzip$k (B_a_prod_llist$ B_llist$ )B_a_prod_b_prod_llist$ )
(declare-fun ltake$a (Enat$ B_a_prod_llist$ )B_a_prod_llist$ )
(declare-fun ltake$b (Enat$ B_llist$ )B_llist$ )
(declare-fun ltake$c (Enat$ A_a_prod_llist$ )A_a_prod_llist$ )
(declare-fun ltake$d (Enat$ B_a_a_prod_prod_llist$ )B_a_a_prod_prod_llist$ )
(declare-fun ltake$e (Enat$ B_b_prod_llist$ )B_b_prod_llist$ )
(declare-fun ltake$f (Enat$ A_b_a_prod_prod_llist$ )A_b_a_prod_prod_llist$ )
(declare-fun ltake$g (Enat$ A_a_a_prod_prod_llist$ )A_a_a_prod_prod_llist$ )
(declare-fun ltake$h (Enat$ A_b_prod_llist$ )A_b_prod_llist$ )
(declare-fun ltake$i (Enat$ A_b_b_prod_prod_llist$ )A_b_b_prod_prod_llist$ )
(declare-fun ltake$j (Enat$ A_a_b_prod_prod_llist$ )A_a_b_prod_prod_llist$ )
(declare-fun ltake$k (Enat$ B_a_prod_a_prod_llist$ )B_a_prod_a_prod_llist$ )
(declare-fun ltake$l (Enat$ B_a_prod_b_prod_llist$ )B_a_prod_b_prod_llist$ )
(declare-fun ltake$m (Enat$ B_b_a_prod_prod_llist$ )B_b_a_prod_prod_llist$ )
(declare-fun fun_app$ (B_a_prod_a_fun$ B_a_prod$ )A$ )
(declare-fun less_eq$ (Enat$ Enat$ )Bool )
(declare-fun llength$ (B_llist$ )Enat$ )
(declare-fun fun_app$a (B_b_b_prod_prod_b_fun$ B_b_b_prod_prod$ )B$ )
(declare-fun fun_app$b (B_b_a_prod_prod_b_fun$ B_b_a_prod_prod$ )B$ )
(declare-fun fun_app$c (B_a_b_prod_prod_b_fun$ B_a_b_prod_prod$ )B$ )
(declare-fun fun_app$d (B_a_a_prod_prod_b_fun$ B_a_a_prod_prod$ )B$ )
(declare-fun fun_app$e (B_b_prod_b_fun$ B_b_prod$ )B$ )
(declare-fun fun_app$f (B_a_prod_b_fun$ B_a_prod$ )B$ )
(declare-fun fun_app$g (A_b_a_prod_prod_a_fun$ A_b_a_prod_prod$ )A$ )
(declare-fun fun_app$h (A_a_a_prod_prod_a_fun$ A_a_a_prod_prod$ )A$ )
(declare-fun fun_app$i (A_b_prod_a_fun$ A_b_prod$ )A$ )
(declare-fun fun_app$j (A_a_prod_a_fun$ A_a_prod$ )A$ )
(declare-fun llength$a (A_llist$ )Enat$ )
(declare-fun llength$b (B_a_prod_llist$ )Enat$ )
(declare-fun llength$c (A_a_prod_llist$ )Enat$ )
(declare-fun llength$d (A_b_prod_llist$ )Enat$ )
(declare-fun llength$e (B_b_prod_llist$ )Enat$ )
(declare-fun llength$f (B_a_a_prod_prod_llist$ )Enat$ )
(declare-fun llength$g (A_b_b_prod_prod_llist$ )Enat$ )
(declare-fun llength$h (A_b_a_prod_prod_llist$ )Enat$ )
(declare-fun llength$i (A_a_b_prod_prod_llist$ )Enat$ )
(declare-fun llength$j (B_b_a_prod_prod_llist$ )Enat$ )
(declare-fun llength$k (B_a_b_prod_prod_llist$ )Enat$ )
(declare-fun llength$l (B_b_b_prod_prod_llist$ )Enat$ )
(declare-fun llength$m (A_a_a_prod_prod_llist$ )Enat$ )
(assert (! (forall ((?v0 B_a_prod$ ))(! (= (fun_app$ uu$ ?v0 )(snd$ ?v0 )):pattern ((fun_app$ uu$ ?v0 )))):named a0 ))
(assert (! (forall ((?v0 B_b_b_prod_prod$ ))(! (= (fun_app$a uuh$ ?v0 )(fst$k ?v0 )):pattern ((fun_app$a uuh$ ?v0 )))):named a1 ))
(assert (! (forall ((?v0 B_b_a_prod_prod$ ))(! (= (fun_app$b uue$ ?v0 )(fst$i ?v0 )):pattern ((fun_app$b uue$ ?v0 )))):named a2 ))
(assert (! (forall ((?v0 B_a_b_prod_prod$ ))(! (= (fun_app$c uug$ ?v0 )(fst$j ?v0 )):pattern ((fun_app$c uug$ ?v0 )))):named a3 ))
(assert (! (forall ((?v0 B_a_a_prod_prod$ ))(! (= (fun_app$d uuf$ ?v0 )(fst$d ?v0 )):pattern ((fun_app$d uuf$ ?v0 )))):named a4 ))
(assert (! (forall ((?v0 B_b_prod$ ))(! (= (fun_app$e uua$ ?v0 )(fst$c ?v0 )):pattern ((fun_app$e uua$ ?v0 )))):named a5 ))
(assert (! (forall ((?v0 B_a_prod$ ))(! (= (fun_app$f uub$ ?v0 )(fst$ ?v0 )):pattern ((fun_app$f uub$ ?v0 )))):named a6 ))
(assert (! (forall ((?v0 A_b_a_prod_prod$ ))(! (= (fun_app$g uui$ ?v0 )(fst$e ?v0 )):pattern ((fun_app$g uui$ ?v0 )))):named a7 ))
(assert (! (forall ((?v0 A_a_a_prod_prod$ ))(! (= (fun_app$h uuj$ ?v0 )(fst$f ?v0 )):pattern ((fun_app$h uuj$ ?v0 )))):named a8 ))
(assert (! (forall ((?v0 A_b_prod$ ))(! (= (fun_app$i uuc$ ?v0 )(fst$b ?v0 )):pattern ((fun_app$i uuc$ ?v0 )))):named a9 ))
(assert (! (forall ((?v0 A_a_prod$ ))(! (= (fun_app$j uud$ ?v0 )(fst$a ?v0 )):pattern ((fun_app$j uud$ ?v0 )))):named a10 ))
(assert (! (not (= (lmap$ uu$ (lzip$ xs$ ys$ ))(ltake$ (min$ (llength$ xs$ )(llength$a ys$ ))ys$ ))):named a11 ))
(assert (! (forall ((?v0 B_b_fun$ )(?v1 B_llist$ ))(= (llength$ (lmap$a ?v0 ?v1 ))(llength$ ?v1 ))):named a12 ))
(assert (! (forall ((?v0 A_b_fun$ )(?v1 A_llist$ ))(= (llength$ (lmap$b ?v0 ?v1 ))(llength$a ?v1 ))):named a13 ))
(assert (! (forall ((?v0 B_a_fun$ )(?v1 B_llist$ ))(= (llength$a (lmap$c ?v0 ?v1 ))(llength$ ?v1 ))):named a14 ))
(assert (! (forall ((?v0 A_a_fun$ )(?v1 A_llist$ ))(= (llength$a (lmap$d ?v0 ?v1 ))(llength$a ?v1 ))):named a15 ))
(assert (! (forall ((?v0 B_a_prod_a_fun$ )(?v1 B_a_prod_llist$ ))(= (llength$a (lmap$ ?v0 ?v1 ))(llength$b ?v1 ))):named a16 ))
(assert (! (forall ((?v0 B_a_prod_b_fun$ )(?v1 B_a_prod_llist$ ))(= (llength$ (lmap$e ?v0 ?v1 ))(llength$b ?v1 ))):named a17 ))
(assert (! (forall ((?v0 A_a_prod_b_fun$ )(?v1 A_a_prod_llist$ ))(= (llength$ (lmap$f ?v0 ?v1 ))(llength$c ?v1 ))):named a18 ))
(assert (! (forall ((?v0 A_b_prod_b_fun$ )(?v1 A_b_prod_llist$ ))(= (llength$ (lmap$g ?v0 ?v1 ))(llength$d ?v1 ))):named a19 ))
(assert (! (forall ((?v0 B_b_prod_b_fun$ )(?v1 B_b_prod_llist$ ))(= (llength$ (lmap$h ?v0 ?v1 ))(llength$e ?v1 ))):named a20 ))
(assert (! (forall ((?v0 A_b_prod_a_fun$ )(?v1 A_b_prod_llist$ ))(= (llength$a (lmap$i ?v0 ?v1 ))(llength$d ?v1 ))):named a21 ))
(assert (! (forall ((?v0 Enat$ )(?v1 A_a_fun$ )(?v2 A_llist$ ))(= (ltake$ ?v0 (lmap$d ?v1 ?v2 ))(lmap$d ?v1 (ltake$ ?v0 ?v2 )))):named a22 ))
(assert (! (forall ((?v0 Enat$ )(?v1 B_a_prod_a_fun$ )(?v2 B_a_prod_llist$ ))(= (ltake$ ?v0 (lmap$ ?v1 ?v2 ))(lmap$ ?v1 (ltake$a ?v0 ?v2 )))):named a23 ))
(assert (! (forall ((?v0 Enat$ )(?v1 B_b_fun$ )(?v2 B_llist$ ))(= (ltake$b ?v0 (lmap$a ?v1 ?v2 ))(lmap$a ?v1 (ltake$b ?v0 ?v2 )))):named a24 ))
(assert (! (forall ((?v0 Enat$ )(?v1 B_a_fun$ )(?v2 B_llist$ ))(= (ltake$ ?v0 (lmap$c ?v1 ?v2 ))(lmap$c ?v1 (ltake$b ?v0 ?v2 )))):named a25 ))
(assert (! (forall ((?v0 Enat$ )(?v1 A_b_fun$ )(?v2 A_llist$ ))(= (ltake$b ?v0 (lmap$b ?v1 ?v2 ))(lmap$b ?v1 (ltake$ ?v0 ?v2 )))):named a26 ))
(assert (! (forall ((?v0 Enat$ )(?v1 A_b_a_prod_fun$ )(?v2 A_llist$ ))(= (ltake$a ?v0 (lmap$j ?v1 ?v2 ))(lmap$j ?v1 (ltake$ ?v0 ?v2 )))):named a27 ))
(assert (! (forall ((?v0 Enat$ )(?v1 B_b_a_prod_fun$ )(?v2 B_llist$ ))(= (ltake$a ?v0 (lmap$k ?v1 ?v2 ))(lmap$k ?v1 (ltake$b ?v0 ?v2 )))):named a28 ))
(assert (! (forall ((?v0 Enat$ )(?v1 B_a_prod_b_fun$ )(?v2 B_a_prod_llist$ ))(= (ltake$b ?v0 (lmap$e ?v1 ?v2 ))(lmap$e ?v1 (ltake$a ?v0 ?v2 )))):named a29 ))
(assert (! (forall ((?v0 Enat$ )(?v1 A_a_prod_b_fun$ )(?v2 A_a_prod_llist$ ))(= (ltake$b ?v0 (lmap$f ?v1 ?v2 ))(lmap$f ?v1 (ltake$c ?v0 ?v2 )))):named a30 ))
(assert (! (forall ((?v0 Enat$ )(?v1 A_a_a_prod_fun$ )(?v2 A_llist$ ))(= (ltake$c ?v0 (lmap$l ?v1 ?v2 ))(lmap$l ?v1 (ltake$ ?v0 ?v2 )))):named a31 ))
(assert (! (forall ((?v0 Enat$ )(?v1 Enat$ )(?v2 B_a_a_prod_prod_llist$ ))(= (ltake$d ?v0 (ltake$d ?v1 ?v2 ))(ltake$d (min$ ?v0 ?v1 )?v2 ))):named a32 ))
(assert (! (forall ((?v0 Enat$ )(?v1 Enat$ )(?v2 B_b_prod_llist$ ))(= (ltake$e ?v0 (ltake$e ?v1 ?v2 ))(ltake$e (min$ ?v0 ?v1 )?v2 ))):named a33 ))
(assert (! (forall ((?v0 Enat$ )(?v1 Enat$ )(?v2 A_b_a_prod_prod_llist$ ))(= (ltake$f ?v0 (ltake$f ?v1 ?v2 ))(ltake$f (min$ ?v0 ?v1 )?v2 ))):named a34 ))
(assert (! (forall ((?v0 Enat$ )(?v1 Enat$ )(?v2 A_a_a_prod_prod_llist$ ))(= (ltake$g ?v0 (ltake$g ?v1 ?v2 ))(ltake$g (min$ ?v0 ?v1 )?v2 ))):named a35 ))
(assert (! (forall ((?v0 Enat$ )(?v1 Enat$ )(?v2 A_b_prod_llist$ ))(= (ltake$h ?v0 (ltake$h ?v1 ?v2 ))(ltake$h (min$ ?v0 ?v1 )?v2 ))):named a36 ))
(assert (! (forall ((?v0 Enat$ )(?v1 Enat$ )(?v2 B_a_prod_llist$ ))(= (ltake$a ?v0 (ltake$a ?v1 ?v2 ))(ltake$a (min$ ?v0 ?v1 )?v2 ))):named a37 ))
(assert (! (forall ((?v0 Enat$ )(?v1 Enat$ )(?v2 B_llist$ ))(= (ltake$b ?v0 (ltake$b ?v1 ?v2 ))(ltake$b (min$ ?v0 ?v1 )?v2 ))):named a38 ))
(assert (! (forall ((?v0 Enat$ )(?v1 Enat$ )(?v2 A_a_prod_llist$ ))(= (ltake$c ?v0 (ltake$c ?v1 ?v2 ))(ltake$c (min$ ?v0 ?v1 )?v2 ))):named a39 ))
(assert (! (forall ((?v0 Enat$ )(?v1 Enat$ )(?v2 A_llist$ ))(= (ltake$ ?v0 (ltake$ ?v1 ?v2 ))(ltake$ (min$ ?v0 ?v1 )?v2 ))):named a40 ))
(assert (! (forall ((?v0 Enat$ )(?v1 B_llist$ ))(= (llength$ (ltake$b ?v0 ?v1 ))(min$ ?v0 (llength$ ?v1 )))):named a41 ))
(assert (! (forall ((?v0 Enat$ )(?v1 A_llist$ ))(= (llength$a (ltake$ ?v0 ?v1 ))(min$ ?v0 (llength$a ?v1 )))):named a42 ))
(assert (! (forall ((?v0 Enat$ )(?v1 B_a_prod_llist$ ))(= (llength$b (ltake$a ?v0 ?v1 ))(min$ ?v0 (llength$b ?v1 )))):named a43 ))
(assert (! (forall ((?v0 Enat$ )(?v1 A_a_prod_llist$ ))(= (llength$c (ltake$c ?v0 ?v1 ))(min$ ?v0 (llength$c ?v1 )))):named a44 ))
(assert (! (forall ((?v0 Enat$ )(?v1 A_b_prod_llist$ ))(= (llength$d (ltake$h ?v0 ?v1 ))(min$ ?v0 (llength$d ?v1 )))):named a45 ))
(assert (! (forall ((?v0 Enat$ )(?v1 B_b_prod_llist$ ))(= (llength$e (ltake$e ?v0 ?v1 ))(min$ ?v0 (llength$e ?v1 )))):named a46 ))
(assert (! (forall ((?v0 Enat$ )(?v1 B_a_a_prod_prod_llist$ ))(= (llength$f (ltake$d ?v0 ?v1 ))(min$ ?v0 (llength$f ?v1 )))):named a47 ))
(assert (! (forall ((?v0 Enat$ )(?v1 A_b_b_prod_prod_llist$ ))(= (llength$g (ltake$i ?v0 ?v1 ))(min$ ?v0 (llength$g ?v1 )))):named a48 ))
(assert (! (forall ((?v0 Enat$ )(?v1 A_b_a_prod_prod_llist$ ))(= (llength$h (ltake$f ?v0 ?v1 ))(min$ ?v0 (llength$h ?v1 )))):named a49 ))
(assert (! (forall ((?v0 Enat$ )(?v1 A_a_b_prod_prod_llist$ ))(= (llength$i (ltake$j ?v0 ?v1 ))(min$ ?v0 (llength$i ?v1 )))):named a50 ))
(assert (! (forall ((?v0 B_llist$ )(?v1 B_llist$ ))(= (llength$e (lzip$a ?v0 ?v1 ))(min$ (llength$ ?v0 )(llength$ ?v1 )))):named a51 ))
(assert (! (forall ((?v0 B_llist$ )(?v1 A_llist$ ))(= (llength$b (lzip$ ?v0 ?v1 ))(min$ (llength$ ?v0 )(llength$a ?v1 )))):named a52 ))
(assert (! (forall ((?v0 A_llist$ )(?v1 B_llist$ ))(= (llength$d (lzip$b ?v0 ?v1 ))(min$ (llength$a ?v0 )(llength$ ?v1 )))):named a53 ))
(assert (! (forall ((?v0 A_llist$ )(?v1 A_llist$ ))(= (llength$c (lzip$c ?v0 ?v1 ))(min$ (llength$a ?v0 )(llength$a ?v1 )))):named a54 ))
(assert (! (forall ((?v0 B_llist$ )(?v1 B_a_prod_llist$ ))(= (llength$j (lzip$d ?v0 ?v1 ))(min$ (llength$ ?v0 )(llength$b ?v1 )))):named a55 ))
(assert (! (forall ((?v0 B_llist$ )(?v1 A_a_prod_llist$ ))(= (llength$f (lzip$e ?v0 ?v1 ))(min$ (llength$ ?v0 )(llength$c ?v1 )))):named a56 ))
(assert (! (forall ((?v0 B_llist$ )(?v1 A_b_prod_llist$ ))(= (llength$k (lzip$f ?v0 ?v1 ))(min$ (llength$ ?v0 )(llength$d ?v1 )))):named a57 ))
(assert (! (forall ((?v0 B_llist$ )(?v1 B_b_prod_llist$ ))(= (llength$l (lzip$g ?v0 ?v1 ))(min$ (llength$ ?v0 )(llength$e ?v1 )))):named a58 ))
(assert (! (forall ((?v0 A_llist$ )(?v1 B_a_prod_llist$ ))(= (llength$h (lzip$h ?v0 ?v1 ))(min$ (llength$a ?v0 )(llength$b ?v1 )))):named a59 ))
(assert (! (forall ((?v0 A_llist$ )(?v1 A_a_prod_llist$ ))(= (llength$m (lzip$i ?v0 ?v1 ))(min$ (llength$a ?v0 )(llength$c ?v1 )))):named a60 ))
(assert (! (forall ((?v0 Enat$ )(?v1 B_llist$ )(?v2 A_llist$ ))(= (ltake$a ?v0 (lzip$ ?v1 ?v2 ))(lzip$ (ltake$b ?v0 ?v1 )(ltake$ ?v0 ?v2 )))):named a61 ))
(assert (! (forall ((?v0 Enat$ )(?v1 A_llist$ )(?v2 A_llist$ ))(= (ltake$c ?v0 (lzip$c ?v1 ?v2 ))(lzip$c (ltake$ ?v0 ?v1 )(ltake$ ?v0 ?v2 )))):named a62 ))
(assert (! (forall ((?v0 Enat$ )(?v1 A_llist$ )(?v2 B_llist$ ))(= (ltake$h ?v0 (lzip$b ?v1 ?v2 ))(lzip$b (ltake$ ?v0 ?v1 )(ltake$b ?v0 ?v2 )))):named a63 ))
(assert (! (forall ((?v0 Enat$ )(?v1 B_llist$ )(?v2 B_llist$ ))(= (ltake$e ?v0 (lzip$a ?v1 ?v2 ))(lzip$a (ltake$b ?v0 ?v1 )(ltake$b ?v0 ?v2 )))):named a64 ))
(assert (! (forall ((?v0 Enat$ )(?v1 A_llist$ )(?v2 B_a_prod_llist$ ))(= (ltake$f ?v0 (lzip$h ?v1 ?v2 ))(lzip$h (ltake$ ?v0 ?v1 )(ltake$a ?v0 ?v2 )))):named a65 ))
(assert (! (forall ((?v0 Enat$ )(?v1 A_llist$ )(?v2 A_a_prod_llist$ ))(= (ltake$g ?v0 (lzip$i ?v1 ?v2 ))(lzip$i (ltake$ ?v0 ?v1 )(ltake$c ?v0 ?v2 )))):named a66 ))
(assert (! (forall ((?v0 Enat$ )(?v1 B_a_prod_llist$ )(?v2 A_llist$ ))(= (ltake$k ?v0 (lzip$j ?v1 ?v2 ))(lzip$j (ltake$a ?v0 ?v1 )(ltake$ ?v0 ?v2 )))):named a67 ))
(assert (! (forall ((?v0 Enat$ )(?v1 B_a_prod_llist$ )(?v2 B_llist$ ))(= (ltake$l ?v0 (lzip$k ?v1 ?v2 ))(lzip$k (ltake$a ?v0 ?v1 )(ltake$b ?v0 ?v2 )))):named a68 ))
(assert (! (forall ((?v0 Enat$ )(?v1 B_llist$ )(?v2 B_a_prod_llist$ ))(= (ltake$m ?v0 (lzip$d ?v1 ?v2 ))(lzip$d (ltake$b ?v0 ?v1 )(ltake$a ?v0 ?v2 )))):named a69 ))
(assert (! (forall ((?v0 Enat$ )(?v1 B_llist$ )(?v2 A_a_prod_llist$ ))(= (ltake$d ?v0 (lzip$e ?v1 ?v2 ))(lzip$e (ltake$b ?v0 ?v1 )(ltake$c ?v0 ?v2 )))):named a70 ))
(assert (! (forall ((?v0 Enat$ )(?v1 Enat$ ))(= (min$ (min$ ?v0 ?v1 )?v1 )(min$ ?v0 ?v1 ))):named a71 ))
(assert (! (forall ((?v0 Enat$ )(?v1 Enat$ ))(= (min$ ?v0 (min$ ?v0 ?v1 ))(min$ ?v0 ?v1 ))):named a72 ))
(assert (! (forall ((?v0 Enat$ ))(= (min$ ?v0 ?v0 )?v0 )):named a73 ))
(assert (! (forall ((?v0 B_llist$ )(?v1 B_llist$ ))(= (lmap$h uua$ (lzip$a ?v0 ?v1 ))(ltake$b (min$ (llength$ ?v0 )(llength$ ?v1 ))?v0 ))):named a74 ))
(assert (! (forall ((?v0 B_llist$ )(?v1 A_llist$ ))(= (lmap$e uub$ (lzip$ ?v0 ?v1 ))(ltake$b (min$ (llength$ ?v0 )(llength$a ?v1 ))?v0 ))):named a75 ))
(assert (! (forall ((?v0 A_llist$ )(?v1 B_llist$ ))(= (lmap$i uuc$ (lzip$b ?v0 ?v1 ))(ltake$ (min$ (llength$a ?v0 )(llength$ ?v1 ))?v0 ))):named a76 ))
(assert (! (forall ((?v0 A_llist$ )(?v1 A_llist$ ))(= (lmap$m uud$ (lzip$c ?v0 ?v1 ))(ltake$ (min$ (llength$a ?v0 )(llength$a ?v1 ))?v0 ))):named a77 ))
(assert (! (forall ((?v0 B_llist$ )(?v1 B_a_prod_llist$ ))(= (lmap$n uue$ (lzip$d ?v0 ?v1 ))(ltake$b (min$ (llength$ ?v0 )(llength$b ?v1 ))?v0 ))):named a78 ))
(assert (! (forall ((?v0 B_llist$ )(?v1 A_a_prod_llist$ ))(= (lmap$o uuf$ (lzip$e ?v0 ?v1 ))(ltake$b (min$ (llength$ ?v0 )(llength$c ?v1 ))?v0 ))):named a79 ))
(assert (! (forall ((?v0 B_llist$ )(?v1 A_b_prod_llist$ ))(= (lmap$p uug$ (lzip$f ?v0 ?v1 ))(ltake$b (min$ (llength$ ?v0 )(llength$d ?v1 ))?v0 ))):named a80 ))
(assert (! (forall ((?v0 B_llist$ )(?v1 B_b_prod_llist$ ))(= (lmap$q uuh$ (lzip$g ?v0 ?v1 ))(ltake$b (min$ (llength$ ?v0 )(llength$e ?v1 ))?v0 ))):named a81 ))
(assert (! (forall ((?v0 A_llist$ )(?v1 B_a_prod_llist$ ))(= (lmap$r uui$ (lzip$h ?v0 ?v1 ))(ltake$ (min$ (llength$a ?v0 )(llength$b ?v1 ))?v0 ))):named a82 ))
(assert (! (forall ((?v0 A_llist$ )(?v1 A_a_prod_llist$ ))(= (lmap$s uuj$ (lzip$i ?v0 ?v1 ))(ltake$ (min$ (llength$a ?v0 )(llength$c ?v1 ))?v0 ))):named a83 ))
(assert (! (forall ((?v0 Enat$ )(?v1 B_a_a_prod_prod_llist$ )(?v2 Enat$ )(?v3 B_a_a_prod_prod_llist$ ))(= (llcp$ (ltake$d ?v0 ?v1 )(ltake$d ?v2 ?v3 ))(min$ (min$ ?v0 ?v2 )(llcp$ ?v1 ?v3 )))):named a84 ))
(assert (! (forall ((?v0 Enat$ )(?v1 B_b_prod_llist$ )(?v2 Enat$ )(?v3 B_b_prod_llist$ ))(= (llcp$a (ltake$e ?v0 ?v1 )(ltake$e ?v2 ?v3 ))(min$ (min$ ?v0 ?v2 )(llcp$a ?v1 ?v3 )))):named a85 ))
(assert (! (forall ((?v0 Enat$ )(?v1 A_b_a_prod_prod_llist$ )(?v2 Enat$ )(?v3 A_b_a_prod_prod_llist$ ))(= (llcp$b (ltake$f ?v0 ?v1 )(ltake$f ?v2 ?v3 ))(min$ (min$ ?v0 ?v2 )(llcp$b ?v1 ?v3 )))):named a86 ))
(assert (! (forall ((?v0 Enat$ )(?v1 A_a_a_prod_prod_llist$ )(?v2 Enat$ )(?v3 A_a_a_prod_prod_llist$ ))(= (llcp$c (ltake$g ?v0 ?v1 )(ltake$g ?v2 ?v3 ))(min$ (min$ ?v0 ?v2 )(llcp$c ?v1 ?v3 )))):named a87 ))
(assert (! (forall ((?v0 Enat$ )(?v1 A_b_prod_llist$ )(?v2 Enat$ )(?v3 A_b_prod_llist$ ))(= (llcp$d (ltake$h ?v0 ?v1 )(ltake$h ?v2 ?v3 ))(min$ (min$ ?v0 ?v2 )(llcp$d ?v1 ?v3 )))):named a88 ))
(assert (! (forall ((?v0 Enat$ )(?v1 B_a_prod_llist$ )(?v2 Enat$ )(?v3 B_a_prod_llist$ ))(= (llcp$e (ltake$a ?v0 ?v1 )(ltake$a ?v2 ?v3 ))(min$ (min$ ?v0 ?v2 )(llcp$e ?v1 ?v3 )))):named a89 ))
(assert (! (forall ((?v0 Enat$ )(?v1 B_llist$ )(?v2 Enat$ )(?v3 B_llist$ ))(= (llcp$f (ltake$b ?v0 ?v1 )(ltake$b ?v2 ?v3 ))(min$ (min$ ?v0 ?v2 )(llcp$f ?v1 ?v3 )))):named a90 ))
(assert (! (forall ((?v0 Enat$ )(?v1 A_a_prod_llist$ )(?v2 Enat$ )(?v3 A_a_prod_llist$ ))(= (llcp$g (ltake$c ?v0 ?v1 )(ltake$c ?v2 ?v3 ))(min$ (min$ ?v0 ?v2 )(llcp$g ?v1 ?v3 )))):named a91 ))
(assert (! (forall ((?v0 Enat$ )(?v1 A_llist$ )(?v2 Enat$ )(?v3 A_llist$ ))(= (llcp$h (ltake$ ?v0 ?v1 )(ltake$ ?v2 ?v3 ))(min$ (min$ ?v0 ?v2 )(llcp$h ?v1 ?v3 )))):named a92 ))
(assert (! (forall ((?v0 Enat$ )(?v1 Enat$ )(?v2 Enat$ ))(= (min$ (min$ ?v0 ?v1 )?v2 )(min$ ?v0 (min$ ?v1 ?v2 )))):named a93 ))
(assert (! (forall ((?v0 Enat$ )(?v1 Enat$ )(?v2 Enat$ ))(= (min$ ?v0 (min$ ?v1 ?v2 ))(min$ ?v1 (min$ ?v0 ?v2 )))):named a94 ))
(assert (! (forall ((?v0 Enat$ )(?v1 Enat$ ))(= (min$ ?v0 ?v1 )(min$ ?v1 ?v0 ))):named a95 ))
(assert (! (forall ((?v0 Enat$ )(?v1 B_a_a_prod_prod_llist$ )(?v2 B_a_a_prod_prod_llist$ ))(= (llcp$ (ltake$d ?v0 ?v1 )?v2 )(min$ ?v0 (llcp$ ?v1 ?v2 )))):named a96 ))
(assert (! (forall ((?v0 Enat$ )(?v1 B_b_prod_llist$ )(?v2 B_b_prod_llist$ ))(= (llcp$a (ltake$e ?v0 ?v1 )?v2 )(min$ ?v0 (llcp$a ?v1 ?v2 )))):named a97 ))
(assert (! (forall ((?v0 Enat$ )(?v1 A_b_a_prod_prod_llist$ )(?v2 A_b_a_prod_prod_llist$ ))(= (llcp$b (ltake$f ?v0 ?v1 )?v2 )(min$ ?v0 (llcp$b ?v1 ?v2 )))):named a98 ))
(assert (! (forall ((?v0 Enat$ )(?v1 A_a_a_prod_prod_llist$ )(?v2 A_a_a_prod_prod_llist$ ))(= (llcp$c (ltake$g ?v0 ?v1 )?v2 )(min$ ?v0 (llcp$c ?v1 ?v2 )))):named a99 ))
(assert (! (forall ((?v0 Enat$ )(?v1 A_b_prod_llist$ )(?v2 A_b_prod_llist$ ))(= (llcp$d (ltake$h ?v0 ?v1 )?v2 )(min$ ?v0 (llcp$d ?v1 ?v2 )))):named a100 ))
(assert (! (forall ((?v0 Enat$ )(?v1 B_a_prod_llist$ )(?v2 B_a_prod_llist$ ))(= (llcp$e (ltake$a ?v0 ?v1 )?v2 )(min$ ?v0 (llcp$e ?v1 ?v2 )))):named a101 ))
(assert (! (forall ((?v0 Enat$ )(?v1 B_llist$ )(?v2 B_llist$ ))(= (llcp$f (ltake$b ?v0 ?v1 )?v2 )(min$ ?v0 (llcp$f ?v1 ?v2 )))):named a102 ))
(assert (! (forall ((?v0 Enat$ )(?v1 A_a_prod_llist$ )(?v2 A_a_prod_llist$ ))(= (llcp$g (ltake$c ?v0 ?v1 )?v2 )(min$ ?v0 (llcp$g ?v1 ?v2 )))):named a103 ))
(assert (! (forall ((?v0 Enat$ )(?v1 A_llist$ )(?v2 A_llist$ ))(= (llcp$h (ltake$ ?v0 ?v1 )?v2 )(min$ ?v0 (llcp$h ?v1 ?v2 )))):named a104 ))
(assert (! (forall ((?v0 B_a_a_prod_prod_llist$ )(?v1 Enat$ )(?v2 B_a_a_prod_prod_llist$ ))(= (llcp$ ?v0 (ltake$d ?v1 ?v2 ))(min$ ?v1 (llcp$ ?v0 ?v2 )))):named a105 ))
(assert (! (forall ((?v0 B_b_prod_llist$ )(?v1 Enat$ )(?v2 B_b_prod_llist$ ))(= (llcp$a ?v0 (ltake$e ?v1 ?v2 ))(min$ ?v1 (llcp$a ?v0 ?v2 )))):named a106 ))
(assert (! (forall ((?v0 A_b_a_prod_prod_llist$ )(?v1 Enat$ )(?v2 A_b_a_prod_prod_llist$ ))(= (llcp$b ?v0 (ltake$f ?v1 ?v2 ))(min$ ?v1 (llcp$b ?v0 ?v2 )))):named a107 ))
(assert (! (forall ((?v0 A_a_a_prod_prod_llist$ )(?v1 Enat$ )(?v2 A_a_a_prod_prod_llist$ ))(= (llcp$c ?v0 (ltake$g ?v1 ?v2 ))(min$ ?v1 (llcp$c ?v0 ?v2 )))):named a108 ))
(assert (! (forall ((?v0 A_b_prod_llist$ )(?v1 Enat$ )(?v2 A_b_prod_llist$ ))(= (llcp$d ?v0 (ltake$h ?v1 ?v2 ))(min$ ?v1 (llcp$d ?v0 ?v2 )))):named a109 ))
(assert (! (forall ((?v0 B_a_prod_llist$ )(?v1 Enat$ )(?v2 B_a_prod_llist$ ))(= (llcp$e ?v0 (ltake$a ?v1 ?v2 ))(min$ ?v1 (llcp$e ?v0 ?v2 )))):named a110 ))
(assert (! (forall ((?v0 B_llist$ )(?v1 Enat$ )(?v2 B_llist$ ))(= (llcp$f ?v0 (ltake$b ?v1 ?v2 ))(min$ ?v1 (llcp$f ?v0 ?v2 )))):named a111 ))
(assert (! (forall ((?v0 A_a_prod_llist$ )(?v1 Enat$ )(?v2 A_a_prod_llist$ ))(= (llcp$g ?v0 (ltake$c ?v1 ?v2 ))(min$ ?v1 (llcp$g ?v0 ?v2 )))):named a112 ))
(assert (! (forall ((?v0 A_llist$ )(?v1 Enat$ )(?v2 A_llist$ ))(= (llcp$h ?v0 (ltake$ ?v1 ?v2 ))(min$ ?v1 (llcp$h ?v0 ?v2 )))):named a113 ))
(assert (! (forall ((?v0 B_llist$ )(?v1 Enat$ ))(! (=> (less_eq$ (llength$ ?v0 )?v1 )(= (ltake$b ?v1 ?v0 )?v0 )):pattern ((ltake$b ?v1 ?v0 )))):named a114 ))
(assert (! (forall ((?v0 A_llist$ )(?v1 Enat$ ))(! (=> (less_eq$ (llength$a ?v0 )?v1 )(= (ltake$ ?v1 ?v0 )?v0 )):pattern ((ltake$ ?v1 ?v0 )))):named a115 ))
(assert (! (forall ((?v0 B_a_prod_llist$ )(?v1 Enat$ ))(! (=> (less_eq$ (llength$b ?v0 )?v1 )(= (ltake$a ?v1 ?v0 )?v0 )):pattern ((ltake$a ?v1 ?v0 )))):named a116 ))
(assert (! (forall ((?v0 A_a_prod_llist$ )(?v1 Enat$ ))(! (=> (less_eq$ (llength$c ?v0 )?v1 )(= (ltake$c ?v1 ?v0 )?v0 )):pattern ((ltake$c ?v1 ?v0 )))):named a117 ))
(assert (! (forall ((?v0 A_b_prod_llist$ )(?v1 Enat$ ))(! (=> (less_eq$ (llength$d ?v0 )?v1 )(= (ltake$h ?v1 ?v0 )?v0 )):pattern ((ltake$h ?v1 ?v0 )))):named a118 ))
(assert (! (forall ((?v0 B_b_prod_llist$ )(?v1 Enat$ ))(! (=> (less_eq$ (llength$e ?v0 )?v1 )(= (ltake$e ?v1 ?v0 )?v0 )):pattern ((ltake$e ?v1 ?v0 )))):named a119 ))
(assert (! (forall ((?v0 B_a_a_prod_prod_llist$ )(?v1 Enat$ ))(! (=> (less_eq$ (llength$f ?v0 )?v1 )(= (ltake$d ?v1 ?v0 )?v0 )):pattern ((ltake$d ?v1 ?v0 )))):named a120 ))
(assert (! (forall ((?v0 A_b_b_prod_prod_llist$ )(?v1 Enat$ ))(! (=> (less_eq$ (llength$g ?v0 )?v1 )(= (ltake$i ?v1 ?v0 )?v0 )):pattern ((ltake$i ?v1 ?v0 )))):named a121 ))
(assert (! (forall ((?v0 A_b_a_prod_prod_llist$ )(?v1 Enat$ ))(! (=> (less_eq$ (llength$h ?v0 )?v1 )(= (ltake$f ?v1 ?v0 )?v0 )):pattern ((ltake$f ?v1 ?v0 )))):named a122 ))
(assert (! (forall ((?v0 A_a_b_prod_prod_llist$ )(?v1 Enat$ ))(! (=> (less_eq$ (llength$i ?v0 )?v1 )(= (ltake$j ?v1 ?v0 )?v0 )):pattern ((ltake$j ?v1 ?v0 )))):named a123 ))
(check-sat )
;(get-unsat-core )
